NAME : single
TYPE : ATSP
DIMENSION : 16
EDGE_WEIGHT_TYPE : EXPLICIT
EDGE_WEIGHT_FORMAT : FULL_MATRIX
EDGE_WEIGHT_SECTION
0 851 298 968 868 2663 118048 799 2617 2060 1844 118050 1988 2470 118066 820 
0 0 497 647 361 2090 117647 168 2019 1419 1177 117647 1228 1920 117647 118 
0 497 0 609 509 2125 117647 448 2034 1532 1420 117647 1562 1958 117647 467 
0 647 609 0 295 1300 117647 479 1240 716 607 117647 690 1095 117647 645 
0 361 509 295 0 1575 117647 196 1462 969 914 117647 969 1388 117647 364 
0 2090 2125 1300 1575 0 334 117647 102 576 654 1030 587 210 117647 117647 
0 117647 117647 117647 117647 334 0 117647 346 584 705 117647 687 209 117647 117647 
0 168 448 479 196 117647 117647 0 1782 1273 1052 117647 1215 1602 117647 168 
0 2019 2034 1240 1462 102 346 1782 0 477 552 945 485 166 117647 117647 
0 1419 1532 716 969 576 584 1273 477 0 180 572 178 429 697 117647 
0 1177 1420 607 914 654 705 1052 552 180 0 756 115 534 853 117647 
0 117647 117647 117647 117647 1030 117647 117647 945 572 756 0 771 988 293 117647 
0 1228 1562 690 969 587 687 1215 485 178 115 771 0 498 117647 117647 
0 1920 1958 1095 1388 210 209 1602 166 429 534 988 498 0 117647 117647 
0 117647 117647 117647 117647 117647 117647 117647 117647 697 853 293 117647 117647 0 117647 
0 118 467 645 364 117647 117647 168 117647 117647 117647 117647 117647 117647 117647 0 
EOF